/*********************************************
 * OPL 20.1.0.0 Data
 * Author: CHAITANYA DHUWARE
 * Creation Date: 09-Feb-2022 at 3:43:48 pm
 *********************************************/
 plant =3;
 DC =2;

TC= [[50,300],[100,250],[500,125]];
plantcapacity=[1000,1500,1200];
demand=[2300,1400];